c Qdimacs file from skolem function generator
p cnf 639 1844
a 448 450 452 454 456 458 460 462 464 466 468 470 472 474 476 478 480 482 484 486 488 490 492 494 496 498 500 502 504 506 508 510 512 514 516 518 520 522 524 526 528 530 532 534 536 538 540 542 544 546 548 550 552 554 556 558 560 562 564 566 568 570 572 574 575 576 577 578 579 580 581 582 583 584 585 586 587 588 589 590 591 592 593 594 595 596 597 598 599 600 601 602 603 604 605 606 607 608 609 610 611 612 613 614 615 616 617 618 619 620 621 622 623 624 625 626 627 628 629 630 631 632 633 634 635 636 637 638 0
e 447 449 451 453 455 457 459 461 463 465 467 469 471 473 475 477 479 481 483 485 487 489 491 493 495 497 499 501 503 505 507 509 511 513 515 517 519 521 523 525 527 529 531 533 535 537 539 541 543 545 547 549 551 553 555 557 559 561 563 565 567 569 571 573 1 2 3 4 5 6 7 8 9 10 11 12 13 14 15 16 17 18 19 20 21 22 23 24 25 26 27 28 29 30 31 32 33 34 35 36 37 38 39 40 41 42 43 44 45 46 47 48 49 50 51 52 53 54 55 56 57 58 59 60 61 62 63 64 65 66 67 68 69 70 71 72 73 74 75 76 77 78 79 80 81 82 83 84 85 86 87 88 89 90 91 92 93 94 95 96 97 98 99 100 101 102 103 104 105 106 107 108 109 110 111 112 113 114 115 116 117 118 119 120 121 122 123 124 125 126 127 128 129 130 131 132 133 134 135 136 137 138 139 140 141 142 143 144 145 146 147 148 149 150 151 152 153 154 155 156 157 158 159 160 161 162 163 164 165 166 167 168 169 170 171 172 173 174 175 176 177 178 179 180 181 182 183 184 185 186 187 188 189 190 191 192 193 194 195 196 197 198 199 200 201 202 203 204 205 206 207 208 209 210 211 212 213 214 215 216 217 218 219 220 221 222 223 224 225 226 227 228 229 230 231 232 233 234 235 236 237 238 239 240 241 242 243 244 245 246 247 248 249 250 251 252 253 254 255 256 257 258 259 260 261 262 263 264 265 266 267 268 269 270 271 272 273 274 275 276 277 278 279 280 281 282 283 284 285 286 287 288 289 290 291 292 293 294 295 296 297 298 299 300 301 302 303 304 305 306 307 308 309 310 311 312 313 314 315 316 317 318 319 320 321 322 323 324 325 326 327 328 329 330 331 332 333 334 335 336 337 338 339 340 341 342 343 344 345 346 347 348 349 350 351 352 353 354 355 356 357 358 359 360 361 362 363 364 365 366 367 368 369 370 371 372 373 374 375 376 377 378 379 380 381 382 383 384 385 386 387 388 389 390 391 392 393 394 395 396 397 398 399 400 401 402 403 404 405 406 407 408 409 410 411 412 413 414 415 416 417 418 419 420 421 422 423 424 425 426 427 428 429 430 431 432 433 434 435 436 437 438 439 440 441 442 443 444 445 446 639 0
4 5 -257 0
4 5 446 0
4 5 -351 0
-4 -5 0
-4 257 351 -446 0
5 -6 -131 0
5 -129 -131 0
5 -130 -131 0
-5 131 0
-5 6 129 130 0
6 -571 7 128 0
6 572 7 128 0
-6 -128 0
-6 -7 0
-6 571 -572 0
7 567 8 127 0
7 -568 8 127 0
-7 -127 0
-7 -8 0
-7 -567 568 0
8 -567 9 126 0
8 568 9 126 0
-8 -126 0
-8 -9 0
-8 567 -568 0
9 563 10 125 0
9 -564 10 125 0
-9 -125 0
-9 -10 0
-9 -563 564 0
10 -563 11 124 0
10 564 11 124 0
-10 -124 0
-10 -11 0
-10 563 -564 0
11 559 12 123 0
11 -560 12 123 0
-11 -123 0
-11 -12 0
-11 -559 560 0
12 -559 13 122 0
12 560 13 122 0
-12 -122 0
-12 -13 0
-12 559 -560 0
13 555 14 121 0
13 -556 14 121 0
-13 -121 0
-13 -14 0
-13 -555 556 0
14 -555 15 120 0
14 556 15 120 0
-14 -120 0
-14 -15 0
-14 555 -556 0
15 551 16 119 0
15 -552 16 119 0
-15 -119 0
-15 -16 0
-15 -551 552 0
16 -551 17 118 0
16 552 17 118 0
-16 -118 0
-16 -17 0
-16 551 -552 0
17 547 18 117 0
17 -548 18 117 0
-17 -117 0
-17 -18 0
-17 -547 548 0
18 -547 19 116 0
18 548 19 116 0
-18 -116 0
-18 -19 0
-18 547 -548 0
19 543 20 115 0
19 -544 20 115 0
-19 -115 0
-19 -20 0
-19 -543 544 0
20 -543 21 114 0
20 544 21 114 0
-20 -114 0
-20 -21 0
-20 543 -544 0
21 539 22 113 0
21 -540 22 113 0
-21 -113 0
-21 -22 0
-21 -539 540 0
22 -539 23 112 0
22 540 23 112 0
-22 -112 0
-22 -23 0
-22 539 -540 0
23 535 24 111 0
23 -536 24 111 0
-23 -111 0
-23 -24 0
-23 -535 536 0
24 -535 25 110 0
24 536 25 110 0
-24 -110 0
-24 -25 0
-24 535 -536 0
25 531 26 109 0
25 -532 26 109 0
-25 -109 0
-25 -26 0
-25 -531 532 0
26 -531 27 108 0
26 532 27 108 0
-26 -108 0
-26 -27 0
-26 531 -532 0
27 527 28 107 0
27 -528 28 107 0
-27 -107 0
-27 -28 0
-27 -527 528 0
28 -527 29 106 0
28 528 29 106 0
-28 -106 0
-28 -29 0
-28 527 -528 0
29 523 30 105 0
29 -524 30 105 0
-29 -105 0
-29 -30 0
-29 -523 524 0
30 -523 31 104 0
30 524 31 104 0
-30 -104 0
-30 -31 0
-30 523 -524 0
31 519 32 103 0
31 -520 32 103 0
-31 -103 0
-31 -32 0
-31 -519 520 0
32 -519 33 102 0
32 520 33 102 0
-32 -102 0
-32 -33 0
-32 519 -520 0
33 515 34 101 0
33 -516 34 101 0
-33 -101 0
-33 -34 0
-33 -515 516 0
34 -515 35 100 0
34 516 35 100 0
-34 -100 0
-34 -35 0
-34 515 -516 0
35 511 36 99 0
35 -512 36 99 0
-35 -99 0
-35 -36 0
-35 -511 512 0
36 -511 37 98 0
36 512 37 98 0
-36 -98 0
-36 -37 0
-36 511 -512 0
37 507 38 97 0
37 -508 38 97 0
-37 -97 0
-37 -38 0
-37 -507 508 0
38 -507 39 96 0
38 508 39 96 0
-38 -96 0
-38 -39 0
-38 507 -508 0
39 503 40 95 0
39 -504 40 95 0
-39 -95 0
-39 -40 0
-39 -503 504 0
40 -503 41 94 0
40 504 41 94 0
-40 -94 0
-40 -41 0
-40 503 -504 0
41 499 42 93 0
41 -500 42 93 0
-41 -93 0
-41 -42 0
-41 -499 500 0
42 -499 43 92 0
42 500 43 92 0
-42 -92 0
-42 -43 0
-42 499 -500 0
43 495 44 91 0
43 -496 44 91 0
-43 -91 0
-43 -44 0
-43 -495 496 0
44 -495 45 90 0
44 496 45 90 0
-44 -90 0
-44 -45 0
-44 495 -496 0
45 491 46 89 0
45 -492 46 89 0
-45 -89 0
-45 -46 0
-45 -491 492 0
46 -491 47 88 0
46 492 47 88 0
-46 -88 0
-46 -47 0
-46 491 -492 0
47 487 48 87 0
47 -488 48 87 0
-47 -87 0
-47 -48 0
-47 -487 488 0
48 -487 49 86 0
48 488 49 86 0
-48 -86 0
-48 -49 0
-48 487 -488 0
49 483 50 85 0
49 -484 50 85 0
-49 -85 0
-49 -50 0
-49 -483 484 0
50 -483 51 84 0
50 484 51 84 0
-50 -84 0
-50 -51 0
-50 483 -484 0
51 479 52 83 0
51 -480 52 83 0
-51 -83 0
-51 -52 0
-51 -479 480 0
52 -479 53 82 0
52 480 53 82 0
-52 -82 0
-52 -53 0
-52 479 -480 0
53 475 54 81 0
53 -476 54 81 0
-53 -81 0
-53 -54 0
-53 -475 476 0
54 -475 55 80 0
54 476 55 80 0
-54 -80 0
-54 -55 0
-54 475 -476 0
55 471 56 79 0
55 -472 56 79 0
-55 -79 0
-55 -56 0
-55 -471 472 0
56 -471 57 78 0
56 472 57 78 0
-56 -78 0
-56 -57 0
-56 471 -472 0
57 467 58 77 0
57 -468 58 77 0
-57 -77 0
-57 -58 0
-57 -467 468 0
58 -467 59 76 0
58 468 59 76 0
-58 -76 0
-58 -59 0
-58 467 -468 0
59 463 60 75 0
59 -464 60 75 0
-59 -75 0
-59 -60 0
-59 -463 464 0
60 -463 61 74 0
60 464 61 74 0
-60 -74 0
-60 -61 0
-60 463 -464 0
61 459 62 73 0
61 -460 62 73 0
-61 -73 0
-61 -62 0
-61 -459 460 0
62 -459 63 72 0
62 460 63 72 0
-62 -72 0
-62 -63 0
-62 459 -460 0
63 455 64 71 0
63 -456 64 71 0
-63 -71 0
-63 -64 0
-63 -455 456 0
64 -455 65 70 0
64 456 65 70 0
-64 -70 0
-64 -65 0
-64 455 -456 0
65 451 66 69 0
65 -452 66 69 0
-65 -69 0
-65 -66 0
-65 -451 452 0
66 -451 67 68 0
66 452 67 68 0
-66 -68 0
-66 -67 0
-66 451 -452 0
67 447 -448 -450 0
67 447 -448 449 0
-67 -447 0
-67 448 0
-67 -449 450 0
68 449 -450 0
-68 -449 0
-68 450 0
69 -453 454 0
-69 453 0
-69 -454 0
70 453 -454 0
-70 -453 0
-70 454 0
71 -457 458 0
-71 457 0
-71 -458 0
72 457 -458 0
-72 -457 0
-72 458 0
73 -461 462 0
-73 461 0
-73 -462 0
74 461 -462 0
-74 -461 0
-74 462 0
75 -465 466 0
-75 465 0
-75 -466 0
76 465 -466 0
-76 -465 0
-76 466 0
77 -469 470 0
-77 469 0
-77 -470 0
78 469 -470 0
-78 -469 0
-78 470 0
79 -473 474 0
-79 473 0
-79 -474 0
80 473 -474 0
-80 -473 0
-80 474 0
81 -477 478 0
-81 477 0
-81 -478 0
82 477 -478 0
-82 -477 0
-82 478 0
83 -481 482 0
-83 481 0
-83 -482 0
84 481 -482 0
-84 -481 0
-84 482 0
85 -485 486 0
-85 485 0
-85 -486 0
86 485 -486 0
-86 -485 0
-86 486 0
87 -489 490 0
-87 489 0
-87 -490 0
88 489 -490 0
-88 -489 0
-88 490 0
89 -493 494 0
-89 493 0
-89 -494 0
90 493 -494 0
-90 -493 0
-90 494 0
91 -497 498 0
-91 497 0
-91 -498 0
92 497 -498 0
-92 -497 0
-92 498 0
93 -501 502 0
-93 501 0
-93 -502 0
94 501 -502 0
-94 -501 0
-94 502 0
95 -505 506 0
-95 505 0
-95 -506 0
96 505 -506 0
-96 -505 0
-96 506 0
97 -509 510 0
-97 509 0
-97 -510 0
98 509 -510 0
-98 -509 0
-98 510 0
99 -513 514 0
-99 513 0
-99 -514 0
100 513 -514 0
-100 -513 0
-100 514 0
101 -517 518 0
-101 517 0
-101 -518 0
102 517 -518 0
-102 -517 0
-102 518 0
103 -521 522 0
-103 521 0
-103 -522 0
104 521 -522 0
-104 -521 0
-104 522 0
105 -525 526 0
-105 525 0
-105 -526 0
106 525 -526 0
-106 -525 0
-106 526 0
107 -529 530 0
-107 529 0
-107 -530 0
108 529 -530 0
-108 -529 0
-108 530 0
109 -533 534 0
-109 533 0
-109 -534 0
110 533 -534 0
-110 -533 0
-110 534 0
111 -537 538 0
-111 537 0
-111 -538 0
112 537 -538 0
-112 -537 0
-112 538 0
113 -541 542 0
-113 541 0
-113 -542 0
114 541 -542 0
-114 -541 0
-114 542 0
115 -545 546 0
-115 545 0
-115 -546 0
116 545 -546 0
-116 -545 0
-116 546 0
117 -549 550 0
-117 549 0
-117 -550 0
118 549 -550 0
-118 -549 0
-118 550 0
119 -553 554 0
-119 553 0
-119 -554 0
120 553 -554 0
-120 -553 0
-120 554 0
121 -557 558 0
-121 557 0
-121 -558 0
122 557 -558 0
-122 -557 0
-122 558 0
123 -561 562 0
-123 561 0
-123 -562 0
124 561 -562 0
-124 -561 0
-124 562 0
125 -565 566 0
-125 565 0
-125 -566 0
126 565 -566 0
-126 -565 0
-126 566 0
127 -569 570 0
-127 569 0
-127 -570 0
128 569 -570 0
-128 -569 0
-128 570 0
129 -573 574 0
-129 573 0
-129 -574 0
130 -571 572 0
-130 571 0
-130 -572 0
131 573 574 132 0
131 -573 -638 132 0
-131 -132 0
-131 573 -574 0
-131 -573 638 0
132 -573 133 256 0
132 638 133 256 0
-132 -256 0
-132 -133 0
-132 573 -638 0
133 571 134 255 0
133 -637 134 255 0
-133 -255 0
-133 -134 0
-133 -571 637 0
134 -567 135 254 0
134 635 135 254 0
-134 -254 0
-134 -135 0
-134 567 -635 0
135 567 136 253 0
135 -635 136 253 0
-135 -253 0
-135 -136 0
-135 -567 635 0
136 -563 137 252 0
136 633 137 252 0
-136 -252 0
-136 -137 0
-136 563 -633 0
137 563 138 251 0
137 -633 138 251 0
-137 -251 0
-137 -138 0
-137 -563 633 0
138 -559 139 250 0
138 631 139 250 0
-138 -250 0
-138 -139 0
-138 559 -631 0
139 559 140 249 0
139 -631 140 249 0
-139 -249 0
-139 -140 0
-139 -559 631 0
140 -555 141 248 0
140 629 141 248 0
-140 -248 0
-140 -141 0
-140 555 -629 0
141 555 142 247 0
141 -629 142 247 0
-141 -247 0
-141 -142 0
-141 -555 629 0
142 -551 143 246 0
142 627 143 246 0
-142 -246 0
-142 -143 0
-142 551 -627 0
143 551 144 245 0
143 -627 144 245 0
-143 -245 0
-143 -144 0
-143 -551 627 0
144 -547 145 244 0
144 625 145 244 0
-144 -244 0
-144 -145 0
-144 547 -625 0
145 547 146 243 0
145 -625 146 243 0
-145 -243 0
-145 -146 0
-145 -547 625 0
146 -543 147 242 0
146 623 147 242 0
-146 -242 0
-146 -147 0
-146 543 -623 0
147 543 148 241 0
147 -623 148 241 0
-147 -241 0
-147 -148 0
-147 -543 623 0
148 -539 149 240 0
148 621 149 240 0
-148 -240 0
-148 -149 0
-148 539 -621 0
149 539 150 239 0
149 -621 150 239 0
-149 -239 0
-149 -150 0
-149 -539 621 0
150 -535 151 238 0
150 619 151 238 0
-150 -238 0
-150 -151 0
-150 535 -619 0
151 535 152 237 0
151 -619 152 237 0
-151 -237 0
-151 -152 0
-151 -535 619 0
152 -531 153 236 0
152 617 153 236 0
-152 -236 0
-152 -153 0
-152 531 -617 0
153 531 154 235 0
153 -617 154 235 0
-153 -235 0
-153 -154 0
-153 -531 617 0
154 -527 155 234 0
154 615 155 234 0
-154 -234 0
-154 -155 0
-154 527 -615 0
155 527 156 233 0
155 -615 156 233 0
-155 -233 0
-155 -156 0
-155 -527 615 0
156 -523 157 232 0
156 613 157 232 0
-156 -232 0
-156 -157 0
-156 523 -613 0
157 523 158 231 0
157 -613 158 231 0
-157 -231 0
-157 -158 0
-157 -523 613 0
158 -519 159 230 0
158 611 159 230 0
-158 -230 0
-158 -159 0
-158 519 -611 0
159 519 160 229 0
159 -611 160 229 0
-159 -229 0
-159 -160 0
-159 -519 611 0
160 -515 161 228 0
160 609 161 228 0
-160 -228 0
-160 -161 0
-160 515 -609 0
161 515 162 227 0
161 -609 162 227 0
-161 -227 0
-161 -162 0
-161 -515 609 0
162 -511 163 226 0
162 607 163 226 0
-162 -226 0
-162 -163 0
-162 511 -607 0
163 511 164 225 0
163 -607 164 225 0
-163 -225 0
-163 -164 0
-163 -511 607 0
164 -507 165 224 0
164 605 165 224 0
-164 -224 0
-164 -165 0
-164 507 -605 0
165 507 166 223 0
165 -605 166 223 0
-165 -223 0
-165 -166 0
-165 -507 605 0
166 -503 167 222 0
166 603 167 222 0
-166 -222 0
-166 -167 0
-166 503 -603 0
167 503 168 221 0
167 -603 168 221 0
-167 -221 0
-167 -168 0
-167 -503 603 0
168 -499 169 220 0
168 601 169 220 0
-168 -220 0
-168 -169 0
-168 499 -601 0
169 499 170 219 0
169 -601 170 219 0
-169 -219 0
-169 -170 0
-169 -499 601 0
170 -495 171 218 0
170 599 171 218 0
-170 -218 0
-170 -171 0
-170 495 -599 0
171 495 172 217 0
171 -599 172 217 0
-171 -217 0
-171 -172 0
-171 -495 599 0
172 -491 173 216 0
172 597 173 216 0
-172 -216 0
-172 -173 0
-172 491 -597 0
173 491 174 215 0
173 -597 174 215 0
-173 -215 0
-173 -174 0
-173 -491 597 0
174 -487 175 214 0
174 595 175 214 0
-174 -214 0
-174 -175 0
-174 487 -595 0
175 487 176 213 0
175 -595 176 213 0
-175 -213 0
-175 -176 0
-175 -487 595 0
176 -483 177 212 0
176 593 177 212 0
-176 -212 0
-176 -177 0
-176 483 -593 0
177 483 178 211 0
177 -593 178 211 0
-177 -211 0
-177 -178 0
-177 -483 593 0
178 -479 179 210 0
178 591 179 210 0
-178 -210 0
-178 -179 0
-178 479 -591 0
179 479 180 209 0
179 -591 180 209 0
-179 -209 0
-179 -180 0
-179 -479 591 0
180 -475 181 208 0
180 589 181 208 0
-180 -208 0
-180 -181 0
-180 475 -589 0
181 475 182 207 0
181 -589 182 207 0
-181 -207 0
-181 -182 0
-181 -475 589 0
182 -471 183 206 0
182 587 183 206 0
-182 -206 0
-182 -183 0
-182 471 -587 0
183 471 184 205 0
183 -587 184 205 0
-183 -205 0
-183 -184 0
-183 -471 587 0
184 -467 185 204 0
184 585 185 204 0
-184 -204 0
-184 -185 0
-184 467 -585 0
185 467 186 203 0
185 -585 186 203 0
-185 -203 0
-185 -186 0
-185 -467 585 0
186 -463 187 202 0
186 583 187 202 0
-186 -202 0
-186 -187 0
-186 463 -583 0
187 463 188 201 0
187 -583 188 201 0
-187 -201 0
-187 -188 0
-187 -463 583 0
188 -459 189 200 0
188 581 189 200 0
-188 -200 0
-188 -189 0
-188 459 -581 0
189 459 190 199 0
189 -581 190 199 0
-189 -199 0
-189 -190 0
-189 -459 581 0
190 -455 191 198 0
190 579 191 198 0
-190 -198 0
-190 -191 0
-190 455 -579 0
191 455 192 197 0
191 -579 192 197 0
-191 -197 0
-191 -192 0
-191 -455 579 0
192 -451 193 196 0
192 577 193 196 0
-192 -196 0
-192 -193 0
-192 451 -577 0
193 449 194 195 0
193 -576 194 195 0
-193 -195 0
-193 -194 0
-193 -449 576 0
194 -447 575 576 0
194 -447 -449 575 0
-194 447 0
-194 -575 0
-194 449 -576 0
195 -451 577 0
-195 451 0
-195 -577 0
196 453 -578 0
-196 -453 0
-196 578 0
197 -453 578 0
-197 453 0
-197 -578 0
198 457 -580 0
-198 -457 0
-198 580 0
199 -457 580 0
-199 457 0
-199 -580 0
200 461 -582 0
-200 -461 0
-200 582 0
201 -461 582 0
-201 461 0
-201 -582 0
202 465 -584 0
-202 -465 0
-202 584 0
203 -465 584 0
-203 465 0
-203 -584 0
204 469 -586 0
-204 -469 0
-204 586 0
205 -469 586 0
-205 469 0
-205 -586 0
206 473 -588 0
-206 -473 0
-206 588 0
207 -473 588 0
-207 473 0
-207 -588 0
208 477 -590 0
-208 -477 0
-208 590 0
209 -477 590 0
-209 477 0
-209 -590 0
210 481 -592 0
-210 -481 0
-210 592 0
211 -481 592 0
-211 481 0
-211 -592 0
212 485 -594 0
-212 -485 0
-212 594 0
213 -485 594 0
-213 485 0
-213 -594 0
214 489 -596 0
-214 -489 0
-214 596 0
215 -489 596 0
-215 489 0
-215 -596 0
216 493 -598 0
-216 -493 0
-216 598 0
217 -493 598 0
-217 493 0
-217 -598 0
218 497 -600 0
-218 -497 0
-218 600 0
219 -497 600 0
-219 497 0
-219 -600 0
220 501 -602 0
-220 -501 0
-220 602 0
221 -501 602 0
-221 501 0
-221 -602 0
222 505 -604 0
-222 -505 0
-222 604 0
223 -505 604 0
-223 505 0
-223 -604 0
224 509 -606 0
-224 -509 0
-224 606 0
225 -509 606 0
-225 509 0
-225 -606 0
226 513 -608 0
-226 -513 0
-226 608 0
227 -513 608 0
-227 513 0
-227 -608 0
228 517 -610 0
-228 -517 0
-228 610 0
229 -517 610 0
-229 517 0
-229 -610 0
230 521 -612 0
-230 -521 0
-230 612 0
231 -521 612 0
-231 521 0
-231 -612 0
232 525 -614 0
-232 -525 0
-232 614 0
233 -525 614 0
-233 525 0
-233 -614 0
234 529 -616 0
-234 -529 0
-234 616 0
235 -529 616 0
-235 529 0
-235 -616 0
236 533 -618 0
-236 -533 0
-236 618 0
237 -533 618 0
-237 533 0
-237 -618 0
238 537 -620 0
-238 -537 0
-238 620 0
239 -537 620 0
-239 537 0
-239 -620 0
240 541 -622 0
-240 -541 0
-240 622 0
241 -541 622 0
-241 541 0
-241 -622 0
242 545 -624 0
-242 -545 0
-242 624 0
243 -545 624 0
-243 545 0
-243 -624 0
244 549 -626 0
-244 -549 0
-244 626 0
245 -549 626 0
-245 549 0
-245 -626 0
246 553 -628 0
-246 -553 0
-246 628 0
247 -553 628 0
-247 553 0
-247 -628 0
248 557 -630 0
-248 -557 0
-248 630 0
249 -557 630 0
-249 557 0
-249 -630 0
250 561 -632 0
-250 -561 0
-250 632 0
251 -561 632 0
-251 561 0
-251 -632 0
252 565 -634 0
-252 -565 0
-252 634 0
253 -565 634 0
-253 565 0
-253 -634 0
254 569 -636 0
-254 -569 0
-254 636 0
255 -569 636 0
-255 569 0
-255 -636 0
256 571 -637 0
-256 -571 0
-256 637 0
257 573 258 259 0
257 -638 258 259 0
-257 -259 0
-257 -258 0
-257 -573 638 0
258 -571 637 0
-258 571 0
-258 -637 0
259 -571 254 260 0
259 637 254 260 0
-259 -260 0
-259 -254 0
-259 571 -637 0
260 569 261 262 0
260 -636 261 262 0
-260 -262 0
-260 -261 0
-260 -569 636 0
261 -567 635 0
-261 567 0
-261 -635 0
262 -567 252 263 0
262 635 252 263 0
-262 -263 0
-262 -252 0
-262 567 -635 0
263 565 264 265 0
263 -634 264 265 0
-263 -265 0
-263 -264 0
-263 -565 634 0
264 -563 633 0
-264 563 0
-264 -633 0
265 -563 250 266 0
265 633 250 266 0
-265 -266 0
-265 -250 0
-265 563 -633 0
266 561 267 268 0
266 -632 267 268 0
-266 -268 0
-266 -267 0
-266 -561 632 0
267 -559 631 0
-267 559 0
-267 -631 0
268 -559 248 269 0
268 631 248 269 0
-268 -269 0
-268 -248 0
-268 559 -631 0
269 557 270 271 0
269 -630 270 271 0
-269 -271 0
-269 -270 0
-269 -557 630 0
270 -555 629 0
-270 555 0
-270 -629 0
271 -555 246 272 0
271 629 246 272 0
-271 -272 0
-271 -246 0
-271 555 -629 0
272 553 273 274 0
272 -628 273 274 0
-272 -274 0
-272 -273 0
-272 -553 628 0
273 -551 627 0
-273 551 0
-273 -627 0
274 -551 244 275 0
274 627 244 275 0
-274 -275 0
-274 -244 0
-274 551 -627 0
275 549 276 277 0
275 -626 276 277 0
-275 -277 0
-275 -276 0
-275 -549 626 0
276 -547 625 0
-276 547 0
-276 -625 0
277 -547 242 278 0
277 625 242 278 0
-277 -278 0
-277 -242 0
-277 547 -625 0
278 545 279 280 0
278 -624 279 280 0
-278 -280 0
-278 -279 0
-278 -545 624 0
279 -543 623 0
-279 543 0
-279 -623 0
280 -543 240 281 0
280 623 240 281 0
-280 -281 0
-280 -240 0
-280 543 -623 0
281 541 282 283 0
281 -622 282 283 0
-281 -283 0
-281 -282 0
-281 -541 622 0
282 -539 621 0
-282 539 0
-282 -621 0
283 -539 238 284 0
283 621 238 284 0
-283 -284 0
-283 -238 0
-283 539 -621 0
284 537 285 286 0
284 -620 285 286 0
-284 -286 0
-284 -285 0
-284 -537 620 0
285 -535 619 0
-285 535 0
-285 -619 0
286 -535 236 287 0
286 619 236 287 0
-286 -287 0
-286 -236 0
-286 535 -619 0
287 533 288 289 0
287 -618 288 289 0
-287 -289 0
-287 -288 0
-287 -533 618 0
288 -531 617 0
-288 531 0
-288 -617 0
289 -531 234 290 0
289 617 234 290 0
-289 -290 0
-289 -234 0
-289 531 -617 0
290 529 291 292 0
290 -616 291 292 0
-290 -292 0
-290 -291 0
-290 -529 616 0
291 -527 615 0
-291 527 0
-291 -615 0
292 -527 232 293 0
292 615 232 293 0
-292 -293 0
-292 -232 0
-292 527 -615 0
293 525 294 295 0
293 -614 294 295 0
-293 -295 0
-293 -294 0
-293 -525 614 0
294 -523 613 0
-294 523 0
-294 -613 0
295 -523 230 296 0
295 613 230 296 0
-295 -296 0
-295 -230 0
-295 523 -613 0
296 521 297 298 0
296 -612 297 298 0
-296 -298 0
-296 -297 0
-296 -521 612 0
297 -519 611 0
-297 519 0
-297 -611 0
298 -519 228 299 0
298 611 228 299 0
-298 -299 0
-298 -228 0
-298 519 -611 0
299 517 300 301 0
299 -610 300 301 0
-299 -301 0
-299 -300 0
-299 -517 610 0
300 -515 609 0
-300 515 0
-300 -609 0
301 -515 226 302 0
301 609 226 302 0
-301 -302 0
-301 -226 0
-301 515 -609 0
302 513 303 304 0
302 -608 303 304 0
-302 -304 0
-302 -303 0
-302 -513 608 0
303 -511 607 0
-303 511 0
-303 -607 0
304 -511 224 305 0
304 607 224 305 0
-304 -305 0
-304 -224 0
-304 511 -607 0
305 509 306 307 0
305 -606 306 307 0
-305 -307 0
-305 -306 0
-305 -509 606 0
306 -507 605 0
-306 507 0
-306 -605 0
307 -507 222 308 0
307 605 222 308 0
-307 -308 0
-307 -222 0
-307 507 -605 0
308 505 309 310 0
308 -604 309 310 0
-308 -310 0
-308 -309 0
-308 -505 604 0
309 -503 603 0
-309 503 0
-309 -603 0
310 -503 220 311 0
310 603 220 311 0
-310 -311 0
-310 -220 0
-310 503 -603 0
311 501 312 313 0
311 -602 312 313 0
-311 -313 0
-311 -312 0
-311 -501 602 0
312 -499 601 0
-312 499 0
-312 -601 0
313 -499 218 314 0
313 601 218 314 0
-313 -314 0
-313 -218 0
-313 499 -601 0
314 497 315 316 0
314 -600 315 316 0
-314 -316 0
-314 -315 0
-314 -497 600 0
315 -495 599 0
-315 495 0
-315 -599 0
316 -495 216 317 0
316 599 216 317 0
-316 -317 0
-316 -216 0
-316 495 -599 0
317 493 318 319 0
317 -598 318 319 0
-317 -319 0
-317 -318 0
-317 -493 598 0
318 -491 597 0
-318 491 0
-318 -597 0
319 -491 214 320 0
319 597 214 320 0
-319 -320 0
-319 -214 0
-319 491 -597 0
320 489 321 322 0
320 -596 321 322 0
-320 -322 0
-320 -321 0
-320 -489 596 0
321 -487 595 0
-321 487 0
-321 -595 0
322 -487 212 323 0
322 595 212 323 0
-322 -323 0
-322 -212 0
-322 487 -595 0
323 485 324 325 0
323 -594 324 325 0
-323 -325 0
-323 -324 0
-323 -485 594 0
324 -483 593 0
-324 483 0
-324 -593 0
325 -483 210 326 0
325 593 210 326 0
-325 -326 0
-325 -210 0
-325 483 -593 0
326 481 327 328 0
326 -592 327 328 0
-326 -328 0
-326 -327 0
-326 -481 592 0
327 -479 591 0
-327 479 0
-327 -591 0
328 -479 208 329 0
328 591 208 329 0
-328 -329 0
-328 -208 0
-328 479 -591 0
329 477 330 331 0
329 -590 330 331 0
-329 -331 0
-329 -330 0
-329 -477 590 0
330 -475 589 0
-330 475 0
-330 -589 0
331 -475 206 332 0
331 589 206 332 0
-331 -332 0
-331 -206 0
-331 475 -589 0
332 473 333 334 0
332 -588 333 334 0
-332 -334 0
-332 -333 0
-332 -473 588 0
333 -471 587 0
-333 471 0
-333 -587 0
334 -471 204 335 0
334 587 204 335 0
-334 -335 0
-334 -204 0
-334 471 -587 0
335 469 336 337 0
335 -586 336 337 0
-335 -337 0
-335 -336 0
-335 -469 586 0
336 -467 585 0
-336 467 0
-336 -585 0
337 -467 202 338 0
337 585 202 338 0
-337 -338 0
-337 -202 0
-337 467 -585 0
338 465 339 340 0
338 -584 339 340 0
-338 -340 0
-338 -339 0
-338 -465 584 0
339 -463 583 0
-339 463 0
-339 -583 0
340 -463 200 341 0
340 583 200 341 0
-340 -341 0
-340 -200 0
-340 463 -583 0
341 461 342 343 0
341 -582 342 343 0
-341 -343 0
-341 -342 0
-341 -461 582 0
342 -459 581 0
-342 459 0
-342 -581 0
343 -459 198 344 0
343 581 198 344 0
-343 -344 0
-343 -198 0
-343 459 -581 0
344 457 345 346 0
344 -580 345 346 0
-344 -346 0
-344 -345 0
-344 -457 580 0
345 -455 579 0
-345 455 0
-345 -579 0
346 -455 196 347 0
346 579 196 347 0
-346 -347 0
-346 -196 0
-346 455 -579 0
347 453 195 348 0
347 -578 195 348 0
-347 -348 0
-347 -195 0
-347 -453 578 0
348 -451 349 350 0
348 577 349 350 0
-348 -350 0
-348 -349 0
-348 451 -577 0
349 449 -576 0
-349 -449 0
-349 576 0
350 447 -575 -576 0
350 447 449 -575 0
-350 -447 0
-350 575 0
-350 -449 576 0
351 -573 352 353 0
351 574 352 353 0
-351 -353 0
-351 -352 0
-351 573 -574 0
352 571 -572 0
-352 -571 0
-352 572 0
353 571 127 354 0
353 -572 127 354 0
-353 -354 0
-353 -127 0
-353 -571 572 0
354 -569 355 356 0
354 570 355 356 0
-354 -356 0
-354 -355 0
-354 569 -570 0
355 567 -568 0
-355 -567 0
-355 568 0
356 567 125 357 0
356 -568 125 357 0
-356 -357 0
-356 -125 0
-356 -567 568 0
357 -565 358 359 0
357 566 358 359 0
-357 -359 0
-357 -358 0
-357 565 -566 0
358 563 -564 0
-358 -563 0
-358 564 0
359 563 123 360 0
359 -564 123 360 0
-359 -360 0
-359 -123 0
-359 -563 564 0
360 -561 361 362 0
360 562 361 362 0
-360 -362 0
-360 -361 0
-360 561 -562 0
361 559 -560 0
-361 -559 0
-361 560 0
362 559 121 363 0
362 -560 121 363 0
-362 -363 0
-362 -121 0
-362 -559 560 0
363 -557 364 365 0
363 558 364 365 0
-363 -365 0
-363 -364 0
-363 557 -558 0
364 555 -556 0
-364 -555 0
-364 556 0
365 555 119 366 0
365 -556 119 366 0
-365 -366 0
-365 -119 0
-365 -555 556 0
366 -553 367 368 0
366 554 367 368 0
-366 -368 0
-366 -367 0
-366 553 -554 0
367 551 -552 0
-367 -551 0
-367 552 0
368 551 117 369 0
368 -552 117 369 0
-368 -369 0
-368 -117 0
-368 -551 552 0
369 -549 370 371 0
369 550 370 371 0
-369 -371 0
-369 -370 0
-369 549 -550 0
370 547 -548 0
-370 -547 0
-370 548 0
371 547 115 372 0
371 -548 115 372 0
-371 -372 0
-371 -115 0
-371 -547 548 0
372 -545 373 374 0
372 546 373 374 0
-372 -374 0
-372 -373 0
-372 545 -546 0
373 543 -544 0
-373 -543 0
-373 544 0
374 543 113 375 0
374 -544 113 375 0
-374 -375 0
-374 -113 0
-374 -543 544 0
375 -541 376 377 0
375 542 376 377 0
-375 -377 0
-375 -376 0
-375 541 -542 0
376 539 -540 0
-376 -539 0
-376 540 0
377 539 111 378 0
377 -540 111 378 0
-377 -378 0
-377 -111 0
-377 -539 540 0
378 -537 379 380 0
378 538 379 380 0
-378 -380 0
-378 -379 0
-378 537 -538 0
379 535 -536 0
-379 -535 0
-379 536 0
380 535 109 381 0
380 -536 109 381 0
-380 -381 0
-380 -109 0
-380 -535 536 0
381 -533 382 383 0
381 534 382 383 0
-381 -383 0
-381 -382 0
-381 533 -534 0
382 531 -532 0
-382 -531 0
-382 532 0
383 531 107 384 0
383 -532 107 384 0
-383 -384 0
-383 -107 0
-383 -531 532 0
384 -529 385 386 0
384 530 385 386 0
-384 -386 0
-384 -385 0
-384 529 -530 0
385 527 -528 0
-385 -527 0
-385 528 0
386 527 105 387 0
386 -528 105 387 0
-386 -387 0
-386 -105 0
-386 -527 528 0
387 -525 388 389 0
387 526 388 389 0
-387 -389 0
-387 -388 0
-387 525 -526 0
388 523 -524 0
-388 -523 0
-388 524 0
389 523 103 390 0
389 -524 103 390 0
-389 -390 0
-389 -103 0
-389 -523 524 0
390 -521 391 392 0
390 522 391 392 0
-390 -392 0
-390 -391 0
-390 521 -522 0
391 519 -520 0
-391 -519 0
-391 520 0
392 519 101 393 0
392 -520 101 393 0
-392 -393 0
-392 -101 0
-392 -519 520 0
393 -517 394 395 0
393 518 394 395 0
-393 -395 0
-393 -394 0
-393 517 -518 0
394 515 -516 0
-394 -515 0
-394 516 0
395 515 99 396 0
395 -516 99 396 0
-395 -396 0
-395 -99 0
-395 -515 516 0
396 -513 397 398 0
396 514 397 398 0
-396 -398 0
-396 -397 0
-396 513 -514 0
397 511 -512 0
-397 -511 0
-397 512 0
398 511 97 399 0
398 -512 97 399 0
-398 -399 0
-398 -97 0
-398 -511 512 0
399 -509 400 401 0
399 510 400 401 0
-399 -401 0
-399 -400 0
-399 509 -510 0
400 507 -508 0
-400 -507 0
-400 508 0
401 507 95 402 0
401 -508 95 402 0
-401 -402 0
-401 -95 0
-401 -507 508 0
402 -505 403 404 0
402 506 403 404 0
-402 -404 0
-402 -403 0
-402 505 -506 0
403 503 -504 0
-403 -503 0
-403 504 0
404 503 93 405 0
404 -504 93 405 0
-404 -405 0
-404 -93 0
-404 -503 504 0
405 -501 406 407 0
405 502 406 407 0
-405 -407 0
-405 -406 0
-405 501 -502 0
406 499 -500 0
-406 -499 0
-406 500 0
407 499 91 408 0
407 -500 91 408 0
-407 -408 0
-407 -91 0
-407 -499 500 0
408 -497 409 410 0
408 498 409 410 0
-408 -410 0
-408 -409 0
-408 497 -498 0
409 495 -496 0
-409 -495 0
-409 496 0
410 495 89 411 0
410 -496 89 411 0
-410 -411 0
-410 -89 0
-410 -495 496 0
411 -493 412 413 0
411 494 412 413 0
-411 -413 0
-411 -412 0
-411 493 -494 0
412 491 -492 0
-412 -491 0
-412 492 0
413 491 87 414 0
413 -492 87 414 0
-413 -414 0
-413 -87 0
-413 -491 492 0
414 -489 415 416 0
414 490 415 416 0
-414 -416 0
-414 -415 0
-414 489 -490 0
415 487 -488 0
-415 -487 0
-415 488 0
416 487 85 417 0
416 -488 85 417 0
-416 -417 0
-416 -85 0
-416 -487 488 0
417 -485 418 419 0
417 486 418 419 0
-417 -419 0
-417 -418 0
-417 485 -486 0
418 483 -484 0
-418 -483 0
-418 484 0
419 483 83 420 0
419 -484 83 420 0
-419 -420 0
-419 -83 0
-419 -483 484 0
420 -481 421 422 0
420 482 421 422 0
-420 -422 0
-420 -421 0
-420 481 -482 0
421 479 -480 0
-421 -479 0
-421 480 0
422 479 81 423 0
422 -480 81 423 0
-422 -423 0
-422 -81 0
-422 -479 480 0
423 -477 424 425 0
423 478 424 425 0
-423 -425 0
-423 -424 0
-423 477 -478 0
424 475 -476 0
-424 -475 0
-424 476 0
425 475 79 426 0
425 -476 79 426 0
-425 -426 0
-425 -79 0
-425 -475 476 0
426 -473 427 428 0
426 474 427 428 0
-426 -428 0
-426 -427 0
-426 473 -474 0
427 471 -472 0
-427 -471 0
-427 472 0
428 471 77 429 0
428 -472 77 429 0
-428 -429 0
-428 -77 0
-428 -471 472 0
429 -469 430 431 0
429 470 430 431 0
-429 -431 0
-429 -430 0
-429 469 -470 0
430 467 -468 0
-430 -467 0
-430 468 0
431 467 75 432 0
431 -468 75 432 0
-431 -432 0
-431 -75 0
-431 -467 468 0
432 -465 433 434 0
432 466 433 434 0
-432 -434 0
-432 -433 0
-432 465 -466 0
433 463 -464 0
-433 -463 0
-433 464 0
434 463 73 435 0
434 -464 73 435 0
-434 -435 0
-434 -73 0
-434 -463 464 0
435 -461 436 437 0
435 462 436 437 0
-435 -437 0
-435 -436 0
-435 461 -462 0
436 459 -460 0
-436 -459 0
-436 460 0
437 459 71 438 0
437 -460 71 438 0
-437 -438 0
-437 -71 0
-437 -459 460 0
438 -457 439 440 0
438 458 439 440 0
-438 -440 0
-438 -439 0
-438 457 -458 0
439 455 -456 0
-439 -455 0
-439 456 0
440 455 69 441 0
440 -456 69 441 0
-440 -441 0
-440 -69 0
-440 -455 456 0
441 -453 442 443 0
441 454 442 443 0
-441 -443 0
-441 -442 0
-441 453 -454 0
442 451 -452 0
-442 -451 0
-442 452 0
443 451 444 445 0
443 -452 444 445 0
-443 -445 0
-443 -444 0
-443 -451 452 0
444 -449 450 0
-444 449 0
-444 -450 0
445 -447 448 -449 0
445 -447 448 450 0
-445 447 0
-445 -448 0
-445 449 -450 0
446 -573 -574 0
446 573 638 0
-446 -573 574 0
-446 573 -638 0
639 0
2 4 0
-2 -4 0
3 4 0
-3 -4 0
3 0

